WARNING: for repeatability, setting FPU to use double precision
============================[ Problem Statistics ]=============================
|                                                                             |
|  Number of variables:           802                                         |
|  Number of clauses:           48438                                         |
|  Parse time:                   0.01 s                                       |
|                                                                             |
c ============================[ Search Statistics ]==============================
c | Conflicts |          ORIGINAL         |          LEARNT          | Progress |
c |           |    Vars  Clauses Literals |    Limit  Clauses Lit/Cl |          |
c ===============================================================================
c Switched to VSIDS.
c Switched to LRB.
c Switched to VSIDS.
c Switched to LRB.
c Switched to VSIDS.
c Switched to LRB.
c Switched to VSIDS.
c Switched to LRB.
c ===============================================================================
restarts                  : 12559
conflicts                 : 6105363        (5064 /sec)
decisions                 : 8155118        (0.00 % random) (6764 /sec)
propagations              : 378770979      (314137 /sec)
conflict literals         : 365309063      (39.04 % deleted)

conflicts w/ DIP found    : 3283488        (53.78 % of conflicts)
conflicts w/ dangerous DIP: 0              (0.00 % of conflicts)
conflicts w/ DIP-learning : 539            (0.01 % of conflicts)
decisions on ext vars     : 59             (0.00 % of decisions)
total ext vars            : 237         
tried delete ext vars     : 213         
deleted ext vars          : 213         
max ext vars              : 90          

Memory used               : 162.00 MB
CPU time                  : 1205.75 s
DIP computation time      : 29.9938 s (2.49 % of total time)
ER_sel time               : 6.63365 s
ER_add time               : 0.001306 s
ER_delC time              : 0 s
ER_delV time              : 0.330846 s
ER_sub time               : 7.91639 s
ER_stat time              : 0 s

UNSATISFIABLE
